Clp0006I 0  Obj 0 Primal inf 1999.9998 (2000) Dual inf 27489859 (1000000)
Clp0006I 200  Obj -22065219 Primal inf 1608393 (2000)
Clp0006I 400  Obj -16579051 Primal inf 1214645 (2000)
Clp0006I 600  Obj -11091602 Primal inf 821697 (2000)
Clp0006I 800  Obj -5604695 Primal inf 433763 (2000)
Clp0006I 1000  Obj -126651 Primal inf 68430 (1999)
Clp0006I 1200  Obj -50000 Primal inf 58865 (1995)
Clp0006I 1293  Obj -50000 Primal inf 63317 (1994)
Clp0006I 1405  Obj -50000 Primal inf 177739 (1994)
Clp0006I 1512  Obj -50000 Primal inf 221852 (1995)
Clp0006I 1625  Obj -50000 Primal inf 232919 (1994)
Clp0006I 1756  Obj -50000 Primal inf 438097 (1993)
Clp0006I 1890  Obj -50000 Primal inf 225648 (1994)
Clp0006I 2027  Obj -50000 Primal inf 237918 (1994)
Clp0006I 2173  Obj -50000 Primal inf 240244 (1994)
Clp0006I 2314  Obj -50000 Primal inf 231835 (1993)
Clp0006I 2469  Obj -50000 Primal inf 174349 (1994)
Clp0006I 2631  Obj -50000 Primal inf 153556 (1994)
Clp0006I 2800  Obj -50000 Primal inf 236912 (1994)
Clp0006I 2943  Obj -50000 Primal inf 270418 (1994)
Clp0006I 3108  Obj -50000 Primal inf 327296 (1993)
Clp0006I 3262  Obj -50000 Primal inf 360479 (1993)
Clp0006I 3414  Obj -50000 Primal inf 300297 (1992)
Clp0006I 3580  Obj -50000 Primal inf 208718 (1993)
Clp0006I 3743  Obj -50000 Primal inf 279971 (1993)
Clp0006I 3902  Obj -50000 Primal inf 168598 (1993)
Clp0006I 4069  Obj -50000 Primal inf 313912 (1994)
Clp0006I 4216  Obj -50000 Primal inf 266191 (1994)
Clp0006I 4380  Obj -50000 Primal inf 290892 (1994)
Clp0006I 4530  Obj -50000 Primal inf 221093 (1994)
Clp0006I 4695  Obj -50000 Primal inf 277704 (1992)
Clp0006I 4853  Obj -50000 Primal inf 397064 (1991)
Clp0006I 4999  Obj -50000 Primal inf 246043 (1992)
Clp0006I 5169  Obj -50000 Primal inf 249493 (1993)
Clp0006I 5326  Obj -50000 Primal inf 361742 (1992)
Clp0006I 5478  Obj -50000 Primal inf 228159 (1994)
Clp0006I 5632  Obj -50000 Primal inf 388146 (1990)
Clp0006I 5780  Obj -50000 Primal inf 335034 (1989)
Clp0006I 5944  Obj -50000 Primal inf 294024 (1989)
Clp0006I 6100  Obj -50000 Primal inf 343123 (1990)
Clp0006I 6247  Obj -50000 Primal inf 273302 (1993)
Clp0006I 6416  Obj -50000 Primal inf 268582 (1991)
Clp0006I 6565  Obj -50000 Primal inf 357042 (1991)
Clp0006I 6721  Obj -50000 Primal inf 315571 (1993)
Clp0006I 6857  Obj -50000 Primal inf 310860 (1991)
Clp0006I 6995  Obj -50000 Primal inf 377050 (1989)
Clp0006I 7136  Obj -50000 Primal inf 338575 (1991)
Clp0006I 7279  Obj -50000 Primal inf 300282 (1991)
Clp0006I 7432  Obj -50000 Primal inf 312283 (1990)
Clp0006I 7587  Obj -50000 Primal inf 355350 (1991)
Clp0006I 7742  Obj -50000 Primal inf 260992 (1990)

TIME LIMIT REACHED!
real 1m24,054s user 1m23,421s sys 0m0,527s
